Read MPS format model from file dat/rmp/DER_96_4096_30.mps
Reading time = 0.57 seconds
: 4192 rows, 19744 columns, 1688215 nonzeros
Gurobi Optimizer version 9.0.0 build v9.0.0rc2 (linux64)
Optimize a model with 4192 rows, 19744 columns and 1688215 nonzeros
Model fingerprint: 0x1c800bf4
Coefficient statistics:
  Matrix range     [1e-04, 1e+01]
  Objective range  [8e-01, 1e+03]
  Bounds range     [2e+04, 2e+04]
  RHS range        [1e+00, 1e+00]
Ordering time: 0.01s

Barrier statistics:
 AA' NZ     : 3.747e+05
 Factor NZ  : 4.208e+05 (roughly 13 MBytes of memory)
 Factor Ops : 4.421e+07 (less than 1 second per iteration)
 Threads    : 1

                  Objective                Residual
Iter       Primal          Dual         Primal    Dual     Compl     Time
   0   1.49894067e+09 -2.28225417e+08  7.06e+06 2.65e-02  7.58e+05     0s
   1   4.84986485e+07 -3.64321828e+07  2.04e+05 3.64e-12  2.36e+04     1s
   2   5.18879835e+06 -8.73353591e+06  2.09e+04 3.64e-12  2.72e+03     1s
   3   6.00859975e+04 -4.38596714e+06  7.89e+01 1.50e-11  2.30e+02     1s
   4   2.89356465e+04  1.79392045e+04  4.50e-11 3.64e-12  5.54e-01     1s
   5   2.87642632e+04  2.08744527e+04  4.57e-11 1.82e-12  3.98e-01     1s
   6   2.85895669e+04  2.65525581e+04  2.65e-11 1.82e-12  1.03e-01     1s
   7   2.84415048e+04  2.78943677e+04  2.78e-11 3.64e-12  2.76e-02     1s
   8   2.83128592e+04  2.81045197e+04  5.91e-11 3.64e-12  1.05e-02     1s
   9   2.82457267e+04  2.81810809e+04  1.04e-10 3.64e-12  3.26e-03     2s
  10   2.82314726e+04  2.81916971e+04  1.23e-10 3.64e-12  2.00e-03     2s
  11   2.82232971e+04  2.81999314e+04  1.61e-10 3.64e-12  1.18e-03     2s
  12   2.82209131e+04  2.82036006e+04  1.67e-10 1.82e-12  8.73e-04     2s
  13   2.82167705e+04  2.82071278e+04  2.15e-10 1.82e-12  4.86e-04     2s
  14   2.82131783e+04  2.82106161e+04  4.96e-10 3.64e-12  1.29e-04     2s
  15   2.82121093e+04  2.82112497e+04  2.23e-09 3.64e-12  4.33e-05     2s
  16   2.82118117e+04  2.82114560e+04  1.59e-09 1.82e-12  1.79e-05     3s
  17   2.82117018e+04  2.82115465e+04  2.97e-09 3.64e-12  7.83e-06     3s
  18   2.82116093e+04  2.82115950e+04  9.21e-09 3.64e-12  7.19e-07     3s
  19   2.82115985e+04  2.82115972e+04  2.72e-08 5.46e-12  6.61e-08     3s
  20   2.82115976e+04  2.82115974e+04  8.11e-07 3.64e-12  1.10e-08     3s
  21   2.82115975e+04  2.82115974e+04  1.37e-06 1.82e-12  5.89e-09     3s
  22   2.82115975e+04  2.82115974e+04  2.47e-06 3.64e-12  1.84e-10     3s
  23   2.82115975e+04  2.82115974e+04  6.09e-07 3.64e-12  1.41e-11     3s
  24   2.82115975e+04  2.82115975e+04  1.67e-07 1.82e-12  5.47e-13     4s

Barrier solved model in 24 iterations and 3.64 seconds
Optimal objective 2.82115975e+04

Solve time: 3.642439933
Barrier iterations: 24
